10J3M/DAT/10J3MUNX-4.dat
10 3
15.2108 3.9001
31.5774 5.6194
31.6776 5.6283
10.3362 3.215
14.0581 3.7494
5.7285 2.3934
18.606 4.3135
16.9457 4.1165
43.9299 6.628
19.5134 4.4174
43.981