10J3M/SOL/10J3MUNX-4.sol
solution status: optimal solution found
objective value:                     107.569733333333
x#1#2                                               1 	(obj:0)
x#2#1                                               1 	(obj:0)
x#3#2                                               1 	(obj:0)
x#4#3                                               1 	(obj:0)
x#5#1                                               1 	(obj:0)
x#6#1                                               1 	(obj:0)
x#7#3                                               1 	(obj:0)
x#8#2                               0.701797189591842 	(obj:0)
x#8#3                               0.298202810408158 	(obj:0)
x#9#1                                               1 	(obj:0)
x#10#1                              0.744897013568332 	(obj:0)
x#10#2                              0.255102986431668 	(obj:0)
z                                    107.569733333333 	(obj:1)
